780 900 387 507
840 960 428 548
775 895 382 502
931 1051 401 521
776 896 360 470
882 1002 392 512
849 969 389 509
787 907 370 490
811 931 419 539
698 818 368 488
988 1108 367 487
788 908 402 522
761 881 367 487
897 1017 401 521
787 907 395 515
703 823 376 496
745 865 426 546
795 915 394 514
868 988 395 515
876 996 403 523
